85
120
96	12
95	16
94	14
93	11
92	10
91	13
90	6
89	14
88	7
87	14
86	14
85	17
84	10
83	14
82	13
81	16
80	15
79	6
78	12
77	6
76	11
75	7
74	9
73	8
72	13
71	13
70	14
69	7
68	15
67	16
66	16
65	15
64	13
63	6
62	14
61	11
60	12
59	10
58	6
57	10
56	12
55	9
54	19
53	12
52	7
51	10
50	13
49	12
48	12
47	8
46	14
45	19
44	7
43	12
42	9
41	7
40	9
39	9
38	9
37	12
36	8
35	11
34	13
33	18
32	10
31	12
30	12
29	13
28	11
27	11
26	16
25	13
24	17
23	14
22	10
21	9
20	14
19	11
18	11
17	17
16	8
15	15
14	14
13	16
12	9
